Route #1: 0 130 71 40 52 20 73 85 91 56 95 15 38 108 10 26 141 77 122 21 104 44 61 12 0
Route #2: 0 128 118 64 74 47 96 33 123 55 82 37 22 131 112 63 113 3 76 138 27 24 67 58 50 25 0
Route #3: 0 126 136 49 66 101 87 43 114 53 98 92 103 129 94 140 69 39 119 14 100 28 54 68 0
Route #4: 0 9 97 7 16 65 90 18 83 99 57 106 134 121 1 107 8 86 135 93 78 0
Route #5: 0 127 109 32 120 35 142 125 132 117 34 30 46 79 60 111 72 110 5 48 59 17 0
Route #6: 0 4 124 70 116 41 102 31 88 51 139 137 42 29 80 23 62 81 11 133 89 19 36 0
Route #7: 0 13 115 2 6 105 75 45 84 0
Cost 27730:
